120 4578.0 5609.0 6664.0 7392.0 10250.0
180 4168.0 4856.0 6153.3 7155.0 7828.0
240 4402.0 4844.0 5997.0 7086.0 8716.0
300 3625.0 3962.0 5276.1 6039.0 8716.0
360 3315.0 3962.0 4965.0 5536.0 8716.0
420 3315.0 3827.0 4920.1 5652.0 7683.0
480 3513.0 3827.0 4788.2 5652.0 7683.0
540 3081.0 3351.0 4392.2 4874.0 7683.0
600 3081.0 3351.0 4314.8 4728.0 7683.0
660 3081.0 3121.0 4085.2 4473.0 6241.0
720 2689.0 3392.0 4231.2 4473.0 7683.0
780 2138.0 3035.0 4066.7 4359.0 7683.0
840 1830.0 3034.0 3985.0 4683.0 7683.0
900 1830.0 2734.0 3707.0 4338.0 7683.0
960 1760.0 2518.0 3213.5 3643.0 5176.0
1020 1669.0 2518.0 3366.0 4338.0 5521.0
1080 1177.0 3037.0 3435.5 4338.0 5176.0
1140 1760.0 3022.0 3466.3 4338.0 5176.0
1200 1538.0 2263.0 3031.5 3337.0 4728.0
1260 1538.0 2145.0 3098.9 3643.0 4728.0
1320 1804.0 2153.0 3183.8 3643.0 4728.0
1380 1804.0 2943.0 3503.4 4666.0 4831.0
1440 1804.0 2943.0 3438.0 4666.0 4831.0
1500 1641.0 2153.0 2984.8 3643.0 4486.0
1560 1804.0 2254.0 2908.4 3380.0 4831.0
1620 1476.0 2611.0 2916.0 3159.0 4871.0
1680 1804.0 2095.0 2960.5 3144.0 4871.0
1740 1734.0 2263.0 2870.0 3211.0 4346.0
1800 1372.0 2263.0 2957.2 3643.0 4218.0
1860 1372.0 2647.0 3005.2 3977.0 4728.0
1920 1372.0 2647.0 3124.2 3977.0 4728.0
1980 1088.0 2430.0 2815.7 3424.0 3528.0
2040 1088.0 2430.0 2785.3 3382.0 3528.0
2100 1088.0 2095.0 2631.9 3382.0 3528.0
2160 1088.0 2095.0 2572.8 3380.0 3528.0
2220 961.0 2095.0 2678.5 3380.0 3528.0
2280 961.0 1807.0 2685.1 3380.0 3528.0
2340 961.0 1741.0 2597.4 3380.0 4224.0
2400 961.0 1651.0 2408.1 3298.0 3424.0
2460 961.0 1528.0 2319.2 3095.0 3424.0
2520 961.0 1658.0 2240.7 3055.0 3380.0
2580 900.0 1181.0 1960.7 2874.0 3380.0
2640 961.0 1658.0 2037.8 2980.0 3380.0
2700 961.0 1651.0 2097.5 2980.0 3380.0
2760 811.0 1181.0 1989.5 2980.0 3380.0
2820 811.0 1181.0 1869.1 2727.0 3095.0
2880 811.0 1181.0 1934.4 2980.0 3380.0
2940 811.0 1181.0 1780.8 2727.0 3095.0
3000 811.0 1181.0 1711.8 2060.0 2980.0
3060 811.0 1147.0 1700.7 1793.0 3426.0
3120 811.0 1147.0 1590.8 1793.0 2980.0
3180 781.0 961.0 1530.1 1793.0 2980.0
3240 775.0 961.0 1554.1 2097.0 2980.0
3300 775.0 961.0 1560.7 1863.0 3012.0
3360 775.0 961.0 1456.0 2079.0 2671.0
3420 775.0 900.0 1358.0 1621.0 2671.0
3480 775.0 900.0 1237.7 1621.0 2121.0
3540 775.0 900.0 1259.9 1621.0 2671.0
3600 775.0 821.0 1265.4 1621.0 2773.0
3660 560.0 802.0 1304.6 1621.0 2773.0
3720 560.0 802.0 1359.7 1621.0 3324.0
3780 560.0 802.0 1301.5 1621.0 2773.0
3840 578.0 802.0 1358.4 1621.0 3324.0
3900 578.0 802.0 1366.5 1621.0 3324.0
3960 578.0 802.0 1358.4 1621.0 3324.0
4020 578.0 775.0 1183.1 1528.0 2310.0
4080 578.0 775.0 1104.4 1528.0 1686.0
4140 578.0 775.0 1144.4 1621.0 1928.0
4200 674.0 775.0 1253.4 1621.0 2892.0
4260 674.0 775.0 1198.3 1621.0 2341.0
4320 674.0 775.0 1241.5 1621.0 2773.0
4380 578.0 775.0 1160.3 1621.0 2087.0
4440 578.0 775.0 1117.1 1621.0 1686.0
4500 578.0 775.0 1117.1 1621.0 1686.0
4560 578.0 775.0 1082.6 1341.0 1655.0
4620 578.0 775.0 1082.6 1341.0 1655.0
4680 560.0 775.0 1124.0 1341.0 2087.0
4740 560.0 775.0 1080.8 1341.0 1655.0
4800 560.0 775.0 1124.0 1341.0 2087.0
4860 560.0 775.0 1046.3 1341.0 1655.0
4920 560.0 775.0 1046.3 1341.0 1655.0
4980 560.0 775.0 1046.3 1341.0 1655.0
5040 560.0 775.0 1046.3 1341.0 1655.0
5100 560.0 755.0 1040.5 1341.0 1742.0
5160 560.0 755.0 1040.5 1341.0 1742.0
5220 560.0 755.0 1040.5 1341.0 1742.0
5280 560.0 755.0 1031.8 1341.0 1655.0
5340 560.0 755.0 1031.8 1341.0 1655.0
5400 560.0 755.0 1031.8 1341.0 1655.0
5460 560.0 755.0 1031.8 1341.0 1655.0
5520 560.0 755.0 1031.8 1341.0 1655.0
5580 560.0 755.0 1031.8 1341.0 1655.0
5640 560.0 755.0 1031.8 1341.0 1655.0
5700 560.0 674.0 1020.6 1341.0 1655.0
5760 560.0 755.0 1031.8 1341.0 1655.0
5820 560.0 755.0 1031.8 1341.0 1655.0
5880 560.0 755.0 1031.8 1341.0 1655.0
5940 560.0 755.0 986.9 1103.0 1655.0
6000 560.0 755.0 992.5 1159.0 1655.0
6060 560.0 775.0 1007.0 1159.0 1655.0
6120 560.0 775.0 1007.0 1159.0 1655.0
6180 560.0 775.0 1007.0 1159.0 1655.0
6240 560.0 775.0 1043.0 1159.0 2087.0
6300 560.0 775.0 1007.0 1159.0 1655.0
6360 560.0 775.0 1046.3 1341.0 1655.0
6420 560.0 775.0 1046.3 1341.0 1655.0
6480 560.0 775.0 1046.3 1341.0 1655.0
6540 560.0 775.0 1046.3 1341.0 1655.0
6600 560.0 769.0 1043.0 1341.0 1655.0
6660 560.0 769.0 1043.0 1341.0 1655.0
6720 560.0 769.0 1043.0 1341.0 1655.0
6780 560.0 769.0 1043.0 1341.0 1655.0
6840 560.0 769.0 1042.5 1341.0 1650.0
6900 560.0 769.0 1049.6 1341.0 1655.0
6960 560.0 769.0 1038.5 1341.0 1655.0
7020 560.0 769.0 1061.0 1341.0 2364.0
7080 560.0 769.0 1043.0 1341.0 1655.0
7140 560.0 769.0 1016.4 1341.0 1587.0
7200 560.0 769.0 1036.2 1341.0 1621.0
7260 560.0 731.0 1035.1 1341.0 1621.0
7320 560.0 731.0 1035.1 1341.0 1621.0
7380 560.0 731.0 1035.1 1341.0 1621.0
7440 560.0 683.0 1002.6 1310.0 1621.0
7500 560.0 738.0 997.5 1310.0 1621.0
7560 560.0 738.0 997.5 1310.0 1621.0
7620 560.0 738.0 997.5 1310.0 1621.0
7680 560.0 738.0 997.5 1310.0 1621.0
7740 560.0 738.0 997.5 1310.0 1621.0
7800 560.0 674.0 930.7 1065.0 1621.0
7860 560.0 738.0 980.5 1159.0 1621.0
7920 560.0 738.0 980.5 1159.0 1621.0
7980 560.0 775.0 984.2 1159.0 1621.0
8040 560.0 775.0 1011.8 1310.0 1621.0
8100 560.0 775.0 1011.8 1310.0 1621.0
8160 560.0 775.0 1011.8 1310.0 1621.0
8220 560.0 775.0 1011.8 1310.0 1621.0
8280 560.0 775.0 1011.8 1310.0 1621.0
8340 560.0 775.0 1011.8 1310.0 1621.0
8400 560.0 775.0 1011.8 1310.0 1621.0
8460 560.0 775.0 1011.8 1310.0 1621.0
8520 560.0 775.0 1011.8 1310.0 1621.0
8580 560.0 775.0 1011.8 1310.0 1621.0
8640 560.0 775.0 1011.8 1310.0 1621.0
8700 560.0 775.0 978.6 1159.0 1621.0
8760 560.0 775.0 1011.8 1310.0 1621.0
8820 560.0 775.0 1011.8 1310.0 1621.0
8880 560.0 775.0 1011.8 1310.0 1621.0
8940 560.0 775.0 1011.8 1310.0 1621.0
9000 560.0 775.0 1011.8 1310.0 1621.0
9060 560.0 768.0 1003.9 1341.0 1621.0
9120 560.0 775.0 1017.1 1341.0 1621.0
9180 560.0 775.0 1017.1 1341.0 1621.0
9240 560.0 775.0 1017.1 1341.0 1621.0
9300 560.0 775.0 973.9 1159.0 1621.0
9360 560.0 775.0 973.9 1159.0 1621.0
9420 560.0 775.0 944.8 1159.0 1363.0
9480 560.0 775.0 944.8 1159.0 1363.0
9540 560.0 775.0 919.2 976.0 1363.0
9600 560.0 775.0 944.8 1159.0 1363.0
9660 560.0 775.0 944.8 1159.0 1363.0
9720 560.0 674.0 888.7 925.0 1363.0
9780 560.0 674.0 912.1 1159.0 1363.0
9840 560.0 674.0 912.1 1159.0 1363.0
9900 560.0 674.0 912.1 1159.0 1363.0
9960 560.0 674.0 865.6 1019.0 1330.0
10020 560.0 674.0 894.7 1159.0 1330.0
10080 560.0 674.0 892.5 1159.0 1330.0
10140 560.0 766.0 954.3 1159.0 1621.0
10200 560.0 750.0 930.6 1089.0 1621.0
10260 560.0 750.0 954.7 1159.0 1621.0
10320 560.0 750.0 899.8 1087.0 1310.0
10380 560.0 750.0 932.2 1159.0 1621.0
10440 560.0 750.0 932.2 1159.0 1621.0
10500 560.0 750.0 932.2 1159.0 1621.0
10560 560.0 750.0 932.2 1159.0 1621.0
10620 548.0 674.0 904.9 1159.0 1621.0
10680 548.0 674.0 868.2 1159.0 1310.0
10740 548.0 674.0 911.5 1159.0 1621.0
10800 548.0 674.0 911.5 1159.0 1621.0
10860 548.0 674.0 911.5 1159.0 1621.0
10920 548.0 674.0 911.5 1159.0 1621.0
10980 548.0 674.0 911.5 1159.0 1621.0
11040 548.0 674.0 911.5 1159.0 1621.0
11100 548.0 674.0 911.5 1159.0 1621.0
11160 548.0 674.0 911.5 1159.0 1621.0
11220 548.0 674.0 911.5 1159.0 1621.0
11280 548.0 674.0 911.5 1159.0 1621.0
11340 548.0 674.0 911.5 1159.0 1621.0
11400 548.0 674.0 911.5 1159.0 1621.0
11460 548.0 674.0 911.5 1159.0 1621.0
11520 548.0 674.0 911.5 1159.0 1621.0
11580 548.0 674.0 911.5 1159.0 1621.0
11640 548.0 674.0 854.5 900.0 1621.0
11700 548.0 674.0 854.5 900.0 1621.0
11760 548.0 674.0 863.6 900.0 1621.0
11820 548.0 674.0 854.7 900.0 1621.0
11880 548.0 674.0 854.7 900.0 1621.0
11940 548.0 674.0 854.7 900.0 1621.0
12000 548.0 674.0 854.7 900.0 1621.0
12060 548.0 674.0 854.7 900.0 1621.0
12120 548.0 655.0 840.9 900.0 1570.0
12180 548.0 655.0 806.4 900.0 1225.0
12240 548.0 674.0 815.2 900.0 1225.0
12300 548.0 674.0 815.2 900.0 1225.0
12360 548.0 674.0 815.2 900.0 1225.0
12420 548.0 560.0 747.5 802.0 1159.0
12480 392.0 560.0 731.9 802.0 1159.0
12540 392.0 560.0 731.9 802.0 1159.0
12600 392.0 560.0 731.9 802.0 1159.0
12660 392.0 560.0 731.9 802.0 1159.0
12720 392.0 560.0 731.9 802.0 1159.0
12780 392.0 560.0 731.9 802.0 1159.0
12840 392.0 560.0 731.9 802.0 1159.0
12900 392.0 560.0 717.0 775.0 1159.0
12960 392.0 560.0 717.0 775.0 1159.0
13020 392.0 560.0 717.0 775.0 1159.0
13080 392.0 560.0 717.0 775.0 1159.0
13140 392.0 560.0 716.3 775.0 1159.0
13200 392.0 560.0 695.5 766.0 1159.0
13260 392.0 560.0 688.4 775.0 900.0
13320 392.0 560.0 716.3 775.0 1159.0
13380 392.0 560.0 716.3 775.0 1159.0
13440 392.0 560.0 716.3 775.0 1159.0
13500 392.0 560.0 716.3 775.0 1159.0
13560 392.0 560.0 703.1 768.0 1159.0
13620 392.0 560.0 716.3 775.0 1159.0
13680 392.0 560.0 716.3 775.0 1159.0
13740 392.0 560.0 716.3 775.0 1159.0
13800 392.0 560.0 716.3 775.0 1159.0
13860 392.0 560.0 716.3 775.0 1159.0
13920 392.0 560.0 716.3 775.0 1159.0
13980 392.0 560.0 716.3 775.0 1159.0
14040 392.0 560.0 716.3 775.0 1159.0
14100 392.0 560.0 716.3 775.0 1159.0
14160 392.0 560.0 716.3 775.0 1159.0
14220 392.0 560.0 716.3 775.0 1159.0
14280 392.0 560.0 732.4 775.0 1320.0
14340 392.0 560.0 732.4 775.0 1320.0
14400 392.0 560.0 732.4 775.0 1320.0
14460 392.0 560.0 732.4 775.0 1320.0
14520 392.0 560.0 732.4 775.0 1320.0
14580 392.0 560.0 732.4 775.0 1320.0
14640 392.0 560.0 732.4 775.0 1320.0
14700 392.0 560.0 732.4 775.0 1320.0
14760 392.0 560.0 732.4 775.0 1320.0
14820 392.0 560.0 732.4 775.0 1320.0
14880 392.0 560.0 711.8 775.0 1159.0
14940 392.0 560.0 711.8 775.0 1159.0
15000 392.0 560.0 711.8 775.0 1159.0
15060 392.0 560.0 716.3 775.0 1159.0
15120 392.0 560.0 716.3 775.0 1159.0
15180 392.0 560.0 716.3 775.0 1159.0
15240 392.0 560.0 716.3 775.0 1159.0
15300 392.0 560.0 716.3 775.0 1159.0
15360 392.0 560.0 716.3 775.0 1159.0
15420 392.0 560.0 716.3 775.0 1159.0
15480 392.0 560.0 706.7 766.0 1159.0
15540 392.0 560.0 706.7 766.0 1159.0
15600 392.0 560.0 706.7 766.0 1159.0
15660 392.0 560.0 706.7 766.0 1159.0
15720 392.0 560.0 706.7 766.0 1159.0
15780 392.0 560.0 702.2 766.0 1159.0
15840 392.0 560.0 685.2 743.0 1159.0
15900 392.0 560.0 685.2 743.0 1159.0
15960 392.0 560.0 685.2 743.0 1159.0
16020 392.0 560.0 685.2 743.0 1159.0
16080 392.0 560.0 685.2 743.0 1159.0
16140 392.0 560.0 685.2 743.0 1159.0
16200 392.0 560.0 680.7 743.0 1159.0
16260 392.0 560.0 680.7 743.0 1159.0
16320 392.0 560.0 680.7 743.0 1159.0
16380 392.0 560.0 680.7 743.0 1159.0
16440 392.0 560.0 690.3 766.0 1159.0
16500 392.0 560.0 688.5 766.0 1159.0
16560 392.0 560.0 688.5 766.0 1159.0
16620 392.0 560.0 688.5 766.0 1159.0
16680 392.0 560.0 688.5 766.0 1159.0
16740 392.0 560.0 688.5 766.0 1159.0
16800 392.0 560.0 688.5 766.0 1159.0
16860 392.0 560.0 653.3 766.0 807.0
16920 392.0 560.0 688.5 766.0 1159.0
16980 392.0 560.0 688.5 766.0 1159.0
17040 392.0 560.0 688.5 766.0 1159.0
17100 392.0 560.0 688.5 766.0 1159.0
17160 392.0 560.0 688.5 766.0 1159.0
17220 392.0 560.0 688.5 766.0 1159.0
17280 392.0 560.0 688.5 766.0 1159.0
17340 392.0 560.0 688.5 766.0 1159.0
17400 392.0 560.0 688.5 766.0 1159.0
17460 392.0 560.0 688.5 766.0 1159.0
17520 392.0 560.0 688.5 766.0 1159.0
17580 392.0 560.0 688.5 766.0 1159.0
17640 392.0 560.0 688.5 766.0 1159.0
17700 392.0 560.0 688.5 766.0 1159.0
17760 392.0 560.0 688.5 766.0 1159.0
17820 392.0 560.0 688.5 766.0 1159.0
17880 392.0 560.0 688.5 766.0 1159.0
17940 392.0 560.0 688.5 766.0 1159.0
18000 392.0 560.0 688.5 766.0 1159.0
18060 392.0 560.0 688.5 766.0 1159.0
18120 392.0 560.0 688.5 766.0 1159.0
18180 392.0 560.0 688.5 766.0 1159.0
18240 392.0 560.0 688.5 766.0 1159.0
18300 392.0 560.0 688.5 766.0 1159.0
18360 392.0 560.0 688.5 766.0 1159.0
18420 392.0 560.0 675.4 766.0 1159.0
18480 392.0 560.0 688.5 766.0 1159.0
18540 392.0 560.0 688.5 766.0 1159.0
18600 392.0 560.0 688.5 766.0 1159.0
18660 392.0 560.0 688.5 766.0 1159.0
18720 392.0 560.0 688.5 766.0 1159.0
18780 392.0 560.0 688.5 766.0 1159.0
18840 392.0 560.0 688.5 766.0 1159.0
18900 392.0 560.0 688.5 766.0 1159.0
18960 385.0 560.0 687.8 766.0 1159.0
19020 392.0 560.0 688.5 766.0 1159.0
19080 392.0 560.0 688.5 766.0 1159.0
19140 392.0 560.0 688.5 766.0 1159.0
19200 392.0 560.0 688.5 766.0 1159.0
19260 392.0 560.0 688.5 766.0 1159.0
19320 392.0 560.0 688.5 766.0 1159.0
19380 392.0 560.0 688.5 766.0 1159.0
19440 392.0 560.0 688.5 766.0 1159.0
19500 392.0 560.0 688.5 766.0 1159.0
19560 392.0 560.0 688.5 766.0 1159.0
19620 392.0 560.0 688.5 766.0 1159.0
19680 392.0 560.0 688.5 766.0 1159.0
19740 392.0 560.0 688.5 766.0 1159.0
19800 392.0 560.0 688.5 766.0 1159.0
19860 392.0 560.0 688.5 766.0 1159.0
19920 392.0 560.0 688.5 766.0 1159.0
19980 392.0 560.0 675.4 743.0 1159.0
20040 392.0 560.0 661.0 766.0 884.0
20100 392.0 560.0 688.5 766.0 1159.0
20160 392.0 560.0 688.5 766.0 1159.0
20220 392.0 560.0 688.5 766.0 1159.0
20280 392.0 548.0 663.0 743.0 1159.0
20340 392.0 548.0 663.0 743.0 1159.0
20400 392.0 560.0 688.5 766.0 1159.0
20460 392.0 560.0 688.5 766.0 1159.0
20520 392.0 560.0 688.5 766.0 1159.0
20580 276.0 548.0 641.8 766.0 1159.0
20640 276.0 548.0 641.8 766.0 1159.0
20700 276.0 548.0 641.8 766.0 1159.0
20760 276.0 548.0 641.8 766.0 1159.0
20820 276.0 548.0 641.8 766.0 1159.0
20880 276.0 548.0 641.8 766.0 1159.0
20940 276.0 548.0 641.8 766.0 1159.0
21000 276.0 548.0 641.8 766.0 1159.0
21060 276.0 548.0 641.8 766.0 1159.0
21120 276.0 548.0 640.7 766.0 1148.0
21180 276.0 497.0 575.6 674.0 775.0
21240 276.0 548.0 640.7 766.0 1148.0
21300 276.0 497.0 575.6 674.0 775.0
21360 276.0 497.0 575.6 674.0 775.0
21420 276.0 497.0 575.6 674.0 775.0
21480 276.0 497.0 575.6 674.0 775.0
21540 276.0 497.0 575.6 674.0 775.0
21600 276.0 497.0 575.6 674.0 775.0
21660 276.0 497.0 575.6 674.0 775.0
21720 276.0 497.0 575.6 674.0 775.0
21780 276.0 497.0 554.8 646.0 766.0
21840 276.0 497.0 554.8 646.0 766.0
21900 276.0 497.0 554.8 646.0 766.0
21960 276.0 497.0 554.8 646.0 766.0
22020 276.0 497.0 554.8 646.0 766.0
22080 276.0 497.0 554.8 646.0 766.0
22140 276.0 497.0 554.8 646.0 766.0
22200 276.0 497.0 554.8 646.0 766.0
22260 276.0 497.0 554.8 646.0 766.0
22320 276.0 497.0 554.8 646.0 766.0
22380 276.0 497.0 554.8 646.0 766.0
22440 276.0 497.0 554.8 646.0 766.0
22500 276.0 497.0 554.8 646.0 766.0
22560 276.0 497.0 554.8 646.0 766.0
22620 276.0 497.0 554.8 646.0 766.0
22680 276.0 497.0 554.8 646.0 766.0
22740 276.0 497.0 554.8 646.0 766.0
22800 276.0 497.0 554.8 646.0 766.0
22860 276.0 497.0 554.8 646.0 766.0
22920 276.0 497.0 554.8 646.0 766.0
22980 276.0 392.0 538.1 646.0 766.0
23040 276.0 392.0 538.1 646.0 766.0
23100 276.0 392.0 538.1 646.0 766.0
23160 276.0 392.0 538.1 646.0 766.0
23220 276.0 392.0 538.1 646.0 766.0
23280 276.0 392.0 538.1 646.0 766.0
23340 276.0 392.0 538.1 646.0 766.0
23400 276.0 392.0 538.1 646.0 766.0
23460 276.0 392.0 538.1 646.0 766.0
23520 276.0 392.0 538.1 646.0 766.0
23580 276.0 392.0 538.1 646.0 766.0
23640 276.0 392.0 538.1 646.0 766.0
23700 276.0 392.0 538.1 646.0 766.0
23760 276.0 392.0 538.1 646.0 766.0
23820 276.0 392.0 538.1 646.0 766.0
23880 276.0 392.0 538.1 646.0 766.0
23940 276.0 392.0 538.1 646.0 766.0
24000 276.0 392.0 538.1 646.0 766.0
24060 276.0 392.0 538.1 646.0 766.0
24120 276.0 392.0 538.1 646.0 766.0
24180 276.0 392.0 538.1 646.0 766.0
24240 276.0 392.0 538.1 646.0 766.0
24300 276.0 392.0 538.1 646.0 766.0
24360 276.0 392.0 538.1 646.0 766.0
24420 276.0 392.0 538.1 646.0 766.0
24480 276.0 392.0 538.1 646.0 766.0
24540 276.0 392.0 538.1 646.0 766.0
24600 276.0 392.0 538.1 646.0 766.0
24660 276.0 392.0 538.1 646.0 766.0
24720 276.0 392.0 538.1 646.0 766.0
24780 276.0 392.0 538.1 646.0 766.0
24840 276.0 392.0 538.1 646.0 766.0
24900 276.0 392.0 538.1 646.0 766.0
24960 276.0 392.0 538.1 646.0 766.0
25020 276.0 392.0 538.1 646.0 766.0
25080 276.0 392.0 538.1 646.0 766.0
25140 276.0 392.0 538.1 646.0 766.0
25200 276.0 392.0 538.1 646.0 766.0
25260 276.0 392.0 538.1 646.0 766.0
25320 276.0 392.0 538.1 646.0 766.0
25380 276.0 392.0 538.1 646.0 766.0
25440 276.0 392.0 538.1 646.0 766.0
25500 276.0 392.0 538.1 646.0 766.0
25560 276.0 392.0 538.1 646.0 766.0
25620 276.0 392.0 538.1 646.0 766.0
25680 276.0 392.0 538.1 646.0 766.0
25740 276.0 392.0 538.1 646.0 766.0
25800 276.0 392.0 538.1 646.0 766.0
25860 276.0 392.0 564.8 674.0 827.0
25920 276.0 392.0 532.6 646.0 766.0
25980 276.0 392.0 538.1 646.0 766.0
26040 276.0 392.0 538.1 646.0 766.0
26100 276.0 392.0 538.1 646.0 766.0
26160 276.0 392.0 538.1 646.0 766.0
26220 276.0 392.0 538.1 646.0 766.0
26280 276.0 392.0 538.1 646.0 766.0
26340 276.0 392.0 538.1 646.0 766.0
26400 276.0 392.0 538.1 646.0 766.0
26460 276.0 392.0 538.1 646.0 766.0
26520 276.0 392.0 538.1 646.0 766.0
26580 276.0 392.0 538.1 646.0 766.0
26640 276.0 392.0 538.1 646.0 766.0
26700 276.0 392.0 538.1 646.0 766.0
26760 276.0 392.0 541.6 646.0 763.0
26820 276.0 392.0 538.1 646.0 766.0
26880 276.0 392.0 538.1 646.0 766.0
26940 276.0 392.0 538.1 646.0 766.0
27000 276.0 392.0 538.1 646.0 766.0
27060 276.0 392.0 538.1 646.0 766.0
